NAME          COPTPROB
OBJSENSE
  MIN
ROWS
 N  __OBJ___
 L  C9      
 L  C77     
 L  C83     
 L  C155    
 L  C169    
 L  C191    
COLUMNS
    MARKER    'MARKER'                 'INTORG'
    x45       __OBJ___  253
    x45       C169      -1
    x45       C191      -1
    x58       __OBJ___  82
    x58       C9        -1
    x58       C155      -1
    x159      __OBJ___  154
    x159      C77       -1
    x159      C169      -1
    x316      __OBJ___  134
    x316      C83       -1
    x438      __OBJ___  166
    x438      C77       -1
    x438      C83       -1
    x516      __OBJ___  129
    x516      C169      -1
    x563      __OBJ___  164
    x563      C83       -1
    x563      C155      -1
    x801      __OBJ___  136
    x801      C9        -1
    x801      C191      -1
    x2476     __OBJ___  39
    x2476     C77       -1
    x2642     __OBJ___  18
    x2642     C9        -1
    MARKER    'MARKER'                 'INTEND'
RHS
    RHS       __OBJ___  -3874
    RHS       C9        -1
    RHS       C77       -1
    RHS       C83       -1
    RHS       C155      -1
    RHS       C169      -1
    RHS       C191      -1
BOUNDS
 UP BOUND     x45       1
 UP BOUND     x58       1
 UP BOUND     x159      1
 UP BOUND     x316      1
 UP BOUND     x438      1
 UP BOUND     x516      1
 UP BOUND     x563      1
 UP BOUND     x801      1
 UP BOUND     x2476     1
 UP BOUND     x2642     1
ENDATA
